100 500 200 500 10 100
97 439
30 492
47 260
34 293
92 363
36 345
54 386
90 326
73 401
87 488
31 452
75 457
41 348
44 414
76 388
45 236
16 365
88 232
93 416
75 331
60 244
93 382
85 306
100 259
82 294
47 318
35 403
25 244
44 345
89 222
59 307
98 307
14 484
35 346
98 413
44 428
63 350
77 336
35 214
74 462
24 340
73 252
86 251
85 242
65 254
93 326
59 220
41 231
75 470
59 352
82 302
45 288
100 337
98 407
50 217
95 409
45 345
29 298
73 206
50 490
76 302
13 321
85 497
50 274
27 229
48 246
18 205
97 232
58 457
96 443
82 455
25 229
74 210
47 394
11 416
53 226
45 499
65 288
54 500
43 359
68 289
69 206
81 488
10 386
76 376
54 368
11 429
37 327
30 474
92 405
24 404
63 305
54 227
97 294
86 204
31 453
36 255
100 286
35 396
100 386
